5101.43
5147.31
5073.36
5085.85
5114.54
5105.48
5069.48
5080.02
5175.05
5114.1
5096.19
5104.7
5067.41
5088.8
5235.63
5083.27
5107.07
5107.71
5450.43
5137.13
5135.9
5119.3
5090.91
5070.52
5112.05
5075.47
5087.3
5081.31
5241.61
5179.24
5542.06
5147
5380.27
5279.71
5182.98
5078.22
5159.21
5106.86
5474.29
5824.97
5392.44
5469.57
5263.21
5365.1
5164.51
5210.86
5207.11
5319.77
5329.1
5464.91
5236.69
5120.17
5084.36
5075.05
5112.56
5065.26
5091.03
5089.04
5112.81
5114.06
5096.91
5306
5132.04
5097.41
5530.88
6120.49
5339.93
5388.34
5188.25
5567.09
5331.39
5343.94
5352.1
5577.75
5234.26
5229.57
5112.68
5089.84
5102.55
5240.19
5153.33
5368.9
5427.91
5202.61
5383.64
5146.12
5106.05
5335.38
5117.03
5145.31
5142.29
5093.81
5196.46
5149.06
5125.12
5112.53
5114.68
5085.31
5151.13
5149.96
